Version identifier: 22.1.0.0 | 2022-03-09 | 1a383f8ce
CPXPARAM_Threads                                 1
CPXPARAM_MIP_Strategy_VariableSelect             3
CPXPARAM_TimeLimit                               600
Tried aggregator 1 time.
Reduced MIP has 4520 rows, 18000 columns, and 114277 nonzeros.
Reduced MIP has 13500 binaries, 4500 generals, 0 SOSs, and 0 indicators.
Presolve time = 0.05 sec. (46.63 ticks)
Found incumbent of value 3733.000000 after 0.14 sec. (119.39 ticks)
Probing time = 0.01 sec. (6.09 ticks)
Tried aggregator 1 time.
Detecting symmetries...
Reduced MIP has 4520 rows, 18000 columns, and 114277 nonzeros.
Reduced MIP has 13500 binaries, 4500 generals, 0 SOSs, and 0 indicators.
Presolve time = 0.07 sec. (59.59 ticks)
Probing time = 0.01 sec. (6.09 ticks)
Clique table members: 506.
MIP emphasis: balance optimality and feasibility.
MIP search method: dynamic search.
Parallel mode: none, using 1 thread.
Root relaxation solution time = 4.81 sec. (4894.86 ticks)

        Nodes                                         Cuts/
   Node  Left     Objective  IInf  Best Integer    Best Bound    ItCnt     Gap

*     0+    0                         3733.0000        0.0000           100.00%
      0     0        0.0000  3718     3733.0000        0.0000    12006  100.00%
*     0+    0                           32.0000        0.0000           100.00%
*     0+    0                           30.0000        0.0000           100.00%
*     0+    0                           28.0000        0.0000           100.00%
*     0+    0                           21.0000        0.0000           100.00%
*     0+    0                           18.0000        0.0000           100.00%
      0     0  -1.00000e+75     0       18.0000        0.0000    12006  100.00%
      0     2        0.0000   732       18.0000        0.0000    12006  100.00%
Elapsed time = 29.31 sec. (29867.69 ticks, tree = 0.01 MB, solutions = 6)
      1     3        0.0000  2672       18.0000        0.0000    47595  100.00%
      2     4        0.0000  1465       18.0000        0.0000    59256  100.00%
      3     5        0.0000  3066       18.0000        0.0000    74943  100.00%
      4     6        0.0000  1478       18.0000        0.0000    76136  100.00%
      5     7        0.0000  3043       18.0000        0.0000    93881  100.00%
      6     8        0.0000  1489       18.0000        0.0000    95884  100.00%
      7     9        0.0000  1749       18.0000        0.0000    99977  100.00%
      8    10        0.0000  1467       18.0000        0.0000   102668  100.00%
      9    11        0.0000  3108       18.0000        0.0000   115764  100.00%
     11    13        0.0000  2113       18.0000        0.0000   138143  100.00%
Elapsed time = 101.53 sec. (105277.28 ticks, tree = 0.27 MB, solutions = 6)
     12    14        0.0000  1463       18.0000        0.0000   138365  100.00%
     13    15        0.0000  1349       18.0000        0.0000   146782  100.00%
     14    16        0.0000  1386       18.0000        0.0000   152753  100.00%
     15    17        0.0000  1312       18.0000        0.0000   153452  100.00%
     16    18        0.0000  1232       18.0000        0.0000   168053  100.00%
     17    19        0.0000  1248       18.0000        0.0000   176044  100.00%
     18    20        0.0000  1248       18.0000        0.0000   181254  100.00%
     19    21        0.0000  1309       18.0000        0.0000   184347  100.00%
     20    22        0.0000  1322       18.0000        0.0000   187717  100.00%
     21    23        0.0000  1577       18.0000        0.0000   203608  100.00%
Elapsed time = 132.72 sec. (137162.16 ticks, tree = 0.63 MB, solutions = 6)
     22    24        0.0000  1325       18.0000        0.0000   207076  100.00%
     23    25        0.0000  1326       18.0000        0.0000   208177  100.00%
     24    26        0.0000  1479       18.0000        0.0000   234402  100.00%
     25    27        0.0000  1453       18.0000        0.0000   248508  100.00%
     26    28        0.0000  1327       18.0000        0.0000   248516  100.00%
     27    29        0.0000  2160       18.0000        0.0000   256902  100.00%
     28    30        0.0000  1336       18.0000        0.0000   260156  100.00%
     29    31        0.0000  1580       18.0000        0.0000   271877  100.00%
     30    32        0.0000  1285       18.0000        0.0000   273494  100.00%
     31    33        0.0000  1463       18.0000        0.0000   289615  100.00%
Elapsed time = 157.05 sec. (161008.18 ticks, tree = 1.02 MB, solutions = 6)
     32    34       -0.0000  1285       18.0000        0.0000   289619  100.00%
     33    35        0.0000  1312       18.0000        0.0000   297937  100.00%
     34    36        0.0000  1285       18.0000        0.0000   299799  100.00%
     35    37        0.0000  1536       18.0000        0.0000   313020  100.00%
     37    39        0.0000  2166       18.0000        0.0000   363542  100.00%
     39    41        0.0000  1277       18.0000        0.0000   369537  100.00%
     40    42        0.0000  1531       18.0000        0.0000   388551  100.00%
     41    43        0.0000  1277       18.0000        0.0000   388552  100.00%
     42    44        0.0000  3094       18.0000        0.0000   392033  100.00%
     43    45        0.0000  1373       18.0000        0.0000   407145  100.00%
Elapsed time = 200.65 sec. (205845.90 ticks, tree = 1.54 MB, solutions = 6)
     44    46       -0.0000  2255       18.0000        0.0000   412745  100.00%
     45    47        0.0000  1380       18.0000        0.0000   417411  100.00%
     46    48        0.0000  1418       18.0000        0.0000   424490  100.00%
     48    50        0.0000  1399       18.0000        0.0000   437171  100.00%
     49    51        0.0000  1370       18.0000        0.0000   437173  100.00%
     50    52        0.0000  1440       18.0000        0.0000   449421  100.00%
     51    53        0.0000  1375       18.0000        0.0000   451439  100.00%
     52    54        0.0000  1444       18.0000        0.0000   468345  100.00%
     53    55        0.0000  1400       18.0000        0.0000   468444  100.00%
     54    56        0.0000  1432       18.0000        0.0000   478495  100.00%
Elapsed time = 233.27 sec. (239630.59 ticks, tree = 1.94 MB, solutions = 6)
     56    58        0.0000  2710       18.0000        0.0000   483657  100.00%
     58    60        0.0000  2693       18.0000        0.0000   489369  100.00%
     60    62        0.0000  2462       18.0000        0.0000   493582  100.00%
     61    63        0.0000  3010       18.0000        0.0000   496001  100.00%
     62    64        0.0000  2769       18.0000        0.0000   500751  100.00%
     64    66        0.0000  1424       18.0000        0.0000   515619  100.00%
     65    67        0.0000  1457       18.0000        0.0000   518626  100.00%
     67    69        0.0000  1300       18.0000        0.0000   527887  100.00%
     68    70        0.0000  1393       18.0000        0.0000   535120  100.00%
     70    72        0.0000  1300       18.0000        0.0000   538894  100.00%
Elapsed time = 280.53 sec. (288423.67 ticks, tree = 2.58 MB, solutions = 6)
     71    73        0.0000  1333       18.0000        0.0000   542166  100.00%
     72    74        0.0000  1352       18.0000        0.0000   548442  100.00%
     74    76        0.0000  1368       18.0000        0.0000   551619  100.00%
     76    78        0.0000  1269       18.0000        0.0000   555813  100.00%
     77    79        0.0000  1329       18.0000        0.0000   575122  100.00%
     79    81        0.0000  1238       18.0000        0.0000   579662  100.00%
     80    82        0.0000  1204       18.0000        0.0000   592430  100.00%
     81    83        0.0000  1284       18.0000        0.0000   605563  100.00%
     82    84        0.0000  1222       18.0000        0.0000   608016  100.00%
     83    85        0.0000  1217       18.0000        0.0000   617568  100.00%
Elapsed time = 299.84 sec. (306612.71 ticks, tree = 3.14 MB, solutions = 6)
     84    86        0.0000  1154       18.0000        0.0000   629148  100.00%
     86    88        0.0000  1047       18.0000        0.0000   637599  100.00%
     88    90        0.0000  1241       18.0000        0.0000   648886  100.00%
     90    92       -0.0000  1058       18.0000        0.0000   657067  100.00%
     92    94       -0.0000  1153       18.0000        0.0000   665398  100.00%
     94    96       -0.0000  1152       18.0000        0.0000   673764  100.00%
     95    97       -0.0000  1064       18.0000        0.0000   676056  100.00%
     96    98        0.0000  1175       18.0000        0.0000   681224  100.00%
     97    99       -0.0000  1073       18.0000        0.0000   686323  100.00%
     98   100        0.0000  1071       18.0000        0.0000   690574  100.00%
Elapsed time = 321.75 sec. (327261.68 ticks, tree = 3.74 MB, solutions = 6)
     99   101        0.0000  1113       18.0000        0.0000   694679  100.00%
    101   103       -0.0000  1073       18.0000        0.0000   703135  100.00%
    102   104       -0.0000  1113       18.0000        0.0000   708141  100.00%
    103   105       -0.0000  1037       18.0000        0.0000   711261  100.00%
    104   106       -0.0000  1024       18.0000        0.0000   716093  100.00%
    105   107        0.0000  1089       18.0000        0.0000   722302  100.00%
    106   108        0.0000  1016       18.0000        0.0000   725190  100.00%
    107   109       -0.0000   996       18.0000        0.0000   729054  100.00%
    108   110       -0.0000   985       18.0000        0.0000   733172  100.00%
    109   111       -0.0000   960       18.0000        0.0000   736889  100.00%
Elapsed time = 335.48 sec. (340395.02 ticks, tree = 4.19 MB, solutions = 6)
    110   112        0.0000   918       18.0000        0.0000   738135  100.00%
    112   114        0.0000   871       18.0000        0.0000   742583  100.00%
    113   115        0.0000   902       18.0000        0.0000   747774  100.00%
    114   116        0.0000   823       18.0000        0.0000   751492  100.00%
    116   118        0.0000   907       18.0000        0.0000   760335  100.00%
    117   119        0.0000   871       18.0000        0.0000   766479  100.00%
    118   120        0.0000   816       18.0000        0.0000   777856  100.00%
    120   122       -0.0000   807       18.0000        0.0000   780824  100.00%
    121   123        0.0000   800       18.0000        0.0000   784324  100.00%
    125   127        0.0000   755       18.0000        0.0000   798664  100.00%
Elapsed time = 385.08 sec. (387887.63 ticks, tree = 4.80 MB, solutions = 6)
    129   131       -0.0000   721       18.0000        0.0000   816303  100.00%
    134   136        0.0000   712       18.0000        0.0000   829467  100.00%
    139   141        0.0000   703       18.0000        0.0000   841002  100.00%
    145   147        0.0000   718       18.0000        0.0000   857677  100.00%
    148   150        0.0000   614       18.0000        0.0000   868725  100.00%
    150   152        0.0000   552       18.0000        0.0000   877784  100.00%
    153   155        0.0000   554       18.0000        0.0000   892737  100.00%
    156   158        0.0000   583       18.0000        0.0000   914874  100.00%
    159   161        0.0000   624       18.0000        0.0000   925405  100.00%
    160   162       -0.0000   573       18.0000        0.0000   932725  100.00%
Elapsed time = 432.38 sec. (436160.68 ticks, tree = 6.24 MB, solutions = 6)
    163   165        0.0000   564       18.0000        0.0000   944954  100.00%
    166   168       -0.0000  1267       18.0000        0.0000   972907  100.00%
    168   170       -0.0000   883       18.0000        0.0000   990993  100.00%
    172   174        0.0000  1039       18.0000        0.0000   997679  100.00%
    174   176        0.0000  1016       18.0000        0.0000  1003918  100.00%
    177   179        0.0000   873       18.0000        0.0000  1009304  100.00%
    179   181       -0.0000   960       18.0000        0.0000  1017287  100.00%
    184   186        0.0000  1077       18.0000        0.0000  1034565  100.00%
    190   192       -0.0000  1013       18.0000        0.0000  1054175  100.00%
    195   197        0.0000   992       18.0000        0.0000  1066721  100.00%
Elapsed time = 491.92 sec. (497487.82 ticks, tree = 7.72 MB, solutions = 6)
    199   201       -0.0000   887       18.0000        0.0000  1079123  100.00%
    202   204        0.0000   837       18.0000        0.0000  1093787  100.00%
    207   209       -0.0000   829       18.0000        0.0000  1111499  100.00%
    212   214        0.0000   876       18.0000        0.0000  1130881  100.00%
    220   222        0.0000   805       18.0000        0.0000  1150556  100.00%
    230   232       -0.0000   808       18.0000        0.0000  1165764  100.00%
    240   242        0.0000   707       18.0000        0.0000  1186949  100.00%
    248   250       -0.0000   774       18.0000        0.0000  1213422  100.00%
    258   260        0.0000   686       18.0000        0.0000  1231944  100.00%
    267   269        0.0000   695       18.0000        0.0000  1246979  100.00%
Elapsed time = 535.26 sec. (538137.15 ticks, tree = 10.66 MB, solutions = 6)
    275   277        0.0000   563       18.0000        0.0000  1270089  100.00%
    280   282        0.0000   633       18.0000        0.0000  1287914  100.00%
    284   286        0.0000   536       18.0000        0.0000  1302575  100.00%
    288   290       -0.0000   614       18.0000        0.0000  1318614  100.00%
    293   295        0.0000   598       18.0000        0.0000  1337801  100.00%
    297   299       -0.0000   860       18.0000        0.0000  1362627  100.00%
Starting limited solution polishing.
*   300+  300                           17.0000        0.0000           100.00%
    303   305       -0.0000   536       17.0000        0.0000  1378667  100.00%
    308   310        0.0000   468       17.0000        0.0000  1405126  100.00%
    312   314       -0.0000   602       17.0000        0.0000  1426535  100.00%
    315   317        0.0000   498       17.0000        0.0000  1443245  100.00%
Elapsed time = 577.48 sec. (581948.31 ticks, tree = 12.69 MB, solutions = 7)
    319   321       -0.0000   530       17.0000        0.0000  1459126  100.00%
    324   326        0.0000   542       17.0000        0.0000  1482071  100.00%
    329   331        0.0000   720       17.0000        0.0000  1504926  100.00%
    334   336        0.0000   501       17.0000        0.0000  1523989  100.00%
    340   342       -0.0000   554       17.0000        0.0000  1543829  100.00%

Root node processing (before b&c):
  Real time             =   29.28 sec. (29833.52 ticks)
Sequential b&c:
  Real time             =  570.73 sec. (574924.68 ticks)
                          ------------
Total (root+branch&cut) =  600.01 sec. (604758.19 ticks)
Primal number of violations:	17
Dual number of violations:	0
Status:	Feasible
Time:	600.01
Sequence:
	15
	6
	0
	10
	19
	2
	17
	9
	0
	17
	19
	0
	10
	19
	0
	17
	11
	16
	17
	11
	7
	17
	19
	0
	10
	19
	0
	17
	19
	7
	17
	19
	2
	17
	16
	7
	15
	7
	6
	15
	2
	7
	15
	7
	0
	15
	16
	2
	5
	13
	11
	5
	13
	8
	12
	13
	11
	5
	18
	19
	5
	18
	9
	12
	18
	9
	12
	1
	11
	14
	1
	9
	14
	1
	8
	14
	1
	9
	14
	1
	4
	14
	18
	8
	5
	1
	11
	14
	1
	9
	14
	1
	9
	14
	1
	11
	14
	1
	9
	14
	1
	11
	14
	1
	8
	5
	18
	19
	5
	18
	4
	14
	3
	18
	12
	9
	1
	14
	11
	1
	14
	9
	1
	12
	9
	1
	14
	8
	1
	14
	9
	1
	14
	9
	7
	16
	15
	0
	0
	15
	16
	0
	15
	7
	16
	15
	3
	2
	17
	19
	2
	17
	3
	4
	10
	3
	16
	17
	11
	6
	10
	11
	0
	17
	19
	2
	10
	9
	7
	10
	11
	2
	17
	16
	3
	10
	7
	16
	15
	7
	16
	3
	4
	18
	5
	8
	13
	12
	9
	13
	12
	2
	9
	5
	7
	19
	17
	2
	8
	5
	13
	9
	12
	13
	8
	5
	18
	11
	5
	13
	11
	5
	13
	8
	12
	13
	8
	5
	18
	19
	5
	18
	9
	5
	13
	11
	12
	13
	9
	12
	13
	11
	5
	18
	11
	5
	13
	8
	17
	5
	19
	10
	0
	8
	14
	13
	9
	12
	18
	3
	14
	4
	8
	17
	16
	11
	17
	7
	11
	10
	2
	9
	17
	16
	8
	10
	7
	9
	10
	6
	9
	10
	6
	11
	17
	7
	11
	10
	6
	11
	17
	16
	8
	17
	16
	7
	15
	16
	0
	15
	7
	2
	19
	5
	1
	8
	12
	13
	11
	5
	13
	8
	12
	13
	8
	5
	13
	8
	12
	13
	11
	5
	18
	19
	5
	18
	9
	14
	1
	3
	14
	18
	9
	5
	18
	4
	14
	3
	4
	17
	16
	0
	15
	16
	7
	15
	6
	2
	15
	7
	0
	15
	6
	2
	15
	7
	16
	17
	2
	9
	10
	2
	9
	10
	6
	4
	17
	16
	0
	15
	2
	6
	15
	0
	2
	10
	3
	4
	10
	3
	4
	10
	3
	4
	18
	5
	4
	13
	5
	8
	18
	14
	3
	4
	10
	3
	4
	10
	0
	19
	5
	18
	19
	5
	18
	4
	5
	18
	3
	4
	12
	18
	8
	5
	13
	9
	5
	18
	8
	14
	1
	9
	14
	2
	7
	15
	0
	2
	15
	6
	7
	15
	16
	0
	15
	6
	7
	10
	8
	0
	10
	3
	4
	17
	7
	8
	10
	2
	3
	17
	4
	3
	10
	4
	3
	14
	1
	11
	14
	1
	9
	14
	1
	9
	14
	1
	8
	12
	13
	8
	5
	18
	19
	5
	18
	9
	5
	18
	8
	14
	13
	9
	12
	6
	7
	15
	16
	0
	15
	7
	16
	15
	7
	0
	15
	16
	0
	15
	6
	2
	15
	7
	7
	15
	16
	0
	15
	7
	16
	15
